WARNING: for repeatability, setting FPU to use double precision
============================[ Problem Statistics ]=============================
|                                                                             |
|  Number of variables:           150                                         |
|  Number of clauses:             645                                         |
|  Parse time:                   0.00 s                                       |
|  Eliminated clauses:           0.03 Mb                                      |
|  Simplification time:        754.79 s                                       |
|                                                                             |
============================[ Search Statistics ]==============================
| Conflicts |          ORIGINAL         |          LEARNT          | Progress |
|           |    Vars  Clauses Literals |    Limit  Clauses Lit/Cl |          |
===============================================================================
===============================================================================
restarts              : 1
conflicts             : 0              (0 /sec)
decisions             : 0              (-nan % random) (0 /sec)
propagations          : 161544184      (214026 /sec)
conflict literals     : 0              (-nan % deleted)
Memory used           : 61.00 MB
CPU time              : 754.788 s

INDETERMINATE
